
Gurobi 12.0.2 (win64) logging started Thu Jun  5 10:48:10 2025

Set parameter LogFile to value "C:\Ioana\_uni\honours\slp\algorithm\Main_files\results\others\prox_tubules\Task_002_Sample001_irr_gurobi.log"
Gurobi Optimizer version 12.0.2 build v12.0.2rc0 (win64 - Windows 11.0 (26100.2))

CPU model: Intel(R) Core(TM) Ultra 5 125H, instruction set [SSE2|AVX|AVX2]
Thread count: 14 physical cores, 18 logical processors, using up to 18 threads

Non-default parameters:
TimeLimit  2200

Optimize a model with 47658 rows, 34811 columns and 147858 nonzeros
Model fingerprint: 0xc11979dd
Variable types: 17417 continuous, 17394 integer (17394 binary)
Coefficient statistics:
  Matrix range     [1e-04, 8e+04]
  Objective range  [1e-04, 1e+01]
  Bounds range     [1e+00, 1e+03]
  RHS range        [1e+00, 1e+00]
Presolve removed 31250 rows and 21852 columns
Presolve time: 0.34s
Presolved: 16408 rows, 12959 columns, 54600 nonzeros
Variable types: 6413 continuous, 6546 integer (6546 binary)

Root relaxation: objective 1.042643e-02, 2957 iterations, 0.21 seconds (0.27 work units)

    Nodes    |    Current Node    |     Objective Bounds      |     Work
 Expl Unexpl |  Obj  Depth IntInf | Incumbent    BestBd   Gap | It/Node Time

     0     0    0.01043    0   28          -    0.01043      -     -    0s
H    0     0                       8.2714739    0.01043   100%     -    0s
     0     0    5.00633    0   29    8.27147    5.00633  39.5%     -    1s
     0     0    5.00633    0   30    8.27147    5.00633  39.5%     -    1s
     0     0    5.00720    0   35    8.27147    5.00720  39.5%     -    1s
     0     0    5.01165    0   29    8.27147    5.01165  39.4%     -    1s
     0     0    5.01165    0   29    8.27147    5.01165  39.4%     -    1s
     0     0    5.88193    0   28    8.27147    5.88193  28.9%     -    1s
     0     0    5.88193    0   26    8.27147    5.88193  28.9%     -    1s
     0     0    6.92117    0   57    8.27147    6.92117  16.3%     -    1s
     0     0    7.22707    0   53    8.27147    7.22707  12.6%     -    1s
     0     0    7.22708    0   53    8.27147    7.22708  12.6%     -    1s
     0     0    7.22720    0   53    8.27147    7.22720  12.6%     -    1s
     0     0    7.22722    0   53    8.27147    7.22722  12.6%     -    1s
     0     0    7.22738    0   53    8.27147    7.22738  12.6%     -    1s
     0     0    7.22882    0   54    8.27147    7.22882  12.6%     -    1s
     0     0    7.22882    0   55    8.27147    7.22882  12.6%     -    1s
     0     0    8.16620    0   33    8.27147    8.16620  1.27%     -    2s

Explored 1 nodes (5300 simplex iterations) in 2.08 seconds (1.97 work units)
Thread count was 18 (of 18 available processors)

Solution count 2: 8.27147 8.27147 

Optimal solution found (tolerance 1.00e-04)
Best objective 8.271473902504e+00, best bound 8.271473902504e+00, gap 0.0000%
